%nprocshared=8
%mem=32GB
%chk=sn2_freq.chk
#p external="orb" freq

SN2 freq ORB

-1 1
C     0.3081730000    -0.0000075500    -0.0000178300
H     0.3217863000   -1.0710616200    0.0488656900
H     0.3217966700    0.5778563100    0.9031013500
H     0.3217842400    0.4931830600   -0.9520205500
F     2.0920501800    0.0000008700    0.0000008400
Cl   -1.8165904400    0.0000117000    0.0000279500



