%chk=water_ext.chk
#p external="uma" opt

Water external UMA example

0 1
O  0.000000  0.000000  0.000000
H  0.758602  0.000000  0.504284
H -0.758602  0.000000  0.504284
