%oldchk=wat_freq.chk
%chk=wat_ext.chk
#p external="mace" opt(readfc,noeigentest,ts,maxcycles=10000) freq(noraman)

Water opt MACE

0 1
O  0.000000  0.000000  0.000000
H  0.758602  0.000000  0.504284
H -0.758602  0.000000  0.504284

