%chk=water_ext.chk
#p external="mace" opt

Water external MACE example

0 1
O  0.000000  0.000000  0.000000
H  0.758602  0.000000  0.504284
H -0.758602  0.000000  0.504284

