%chk=water_freq.chk
#p external="mace" freq

Water freq MACE - compute analytical Hessian

0 1
O  0.000000  0.000000  0.000000
H  0.758602  0.000000  0.504284
H -0.758602  0.000000  0.504284

